Route #1: 44 24 49 23 56 43 41 42 64 22 61 21 47 36 69 71 60 70 20 37 15 57 13
Route #2: 38 11 65 66 59 14 10 31 25 55 18 50 32 9 39 72
Route #3: 45 29 5 48 74 28 62 1 73 16 63 33 27 52 7 35 53 19 54 8
Route #4: 26 17 51 3 40 12 58 6 2 30 68 4 34 46 67 75
Cost 702.6976084527421